<instance format="XCSP3" type="CSP">
  <variables>
    <array id="x" size="[532]"> 0 1 </array>
  </variables>
  <constraints>
    <group>
      <extension>
        <list> %0 %1 </list>
        <conflicts> (0,0) </conflicts>
      </extension>
      <args> x[176] x[174] </args>
      <args> x[180] x[174] </args>
      <args> x[176] x[175] </args>
      <args> x[181] x[175] </args>
      <args> x[382] x[189] </args>
      <args> x[383] x[189] </args>
      <args> x[380] x[189] </args>
      <args> x[384] x[189] </args>
      <args> x[382] x[190] </args>
      <args> x[383] x[190] </args>
      <args> x[381] x[190] </args>
      <args> x[385] x[190] </args>
      <args> x[95] x[93] </args>
      <args> x[99] x[93] </args>
      <args> x[95] x[94] </args>
      <args> x[100] x[94] </args>
      <args> x[265] x[264] </args>
      <args> x[266] x[264] </args>
      <args> x[172] x[171] </args>
      <args> x[173] x[171] </args>
      <args> x[72] x[70] </args>
      <args> x[76] x[70] </args>
      <args> x[73] x[71] </args>
      <args> x[76] x[71] </args>
      <args> x[5] x[267] </args>
      <args> x[494] x[267] </args>
      <args> x[448] x[447] </args>
      <args> x[449] x[447] </args>
      <args> x[489] x[488] </args>
      <args> x[490] x[488] </args>
      <args> x[451] x[450] </args>
      <args> x[452] x[450] </args>
      <args> x[169] x[168] </args>
      <args> x[170] x[168] </args>
      <args> x[3] x[263] </args>
      <args> x[459] x[263] </args>
      <args> x[486] x[485] </args>
      <args> x[487] x[485] </args>
      <args> x[483] x[482] </args>
      <args> x[484] x[482] </args>
      <args> x[246] x[244] </args>
      <args> x[250] x[244] </args>
      <args> x[246] x[245] </args>
      <args> x[251] x[245] </args>
      <args> x[161] x[160] </args>
      <args> x[162] x[160] </args>
      <args> x[2] x[262] </args>
      <args> x[491] x[262] </args>
      <args> x[477] x[476] </args>
      <args> x[478] x[476] </args>
      <args> x[335] x[334] </args>
      <args> x[336] x[334] </args>
      <args> x[63] x[159] </args>
      <args> x[157] x[159] </args>
      <args> x[146] x[151] </args>
      <args> x[147] x[146] </args>
      <args> x[148] x[146] </args>
      <args> x[149] x[146] </args>
      <args> x[150] x[146] </args>
      <args> x[91] x[90] </args>
      <args> x[92] x[90] </args>
      <args> x[392] x[390] </args>
      <args> x[391] x[390] </args>
      <args> x[394] x[393] </args>
      <args> x[395] x[393] </args>
      <args> x[444] x[443] </args>
      <args> x[445] x[443] </args>
      <args> x[480] x[479] </args>
      <args> x[481] x[479] </args>
      <args> x[1] x[330] </args>
      <args> x[460] x[330] </args>
      <args> x[88] x[87] </args>
      <args> x[89] x[87] </args>
      <args> x[13] x[12] </args>
      <args> x[14] x[12] </args>
      <args> x[388] x[387] </args>
      <args> x[389] x[387] </args>
      <args> x[408] x[407] </args>
      <args> x[409] x[407] </args>
      <args> x[0] x[386] </args>
      <args> x[461] x[386] </args>
      <args> x[328] x[327] </args>
      <args> x[329] x[327] </args>
      <args> x[353] x[352] </args>
      <args> x[354] x[352] </args>
      <args> x[109] x[108] </args>
      <args> x[110] x[108] </args>
      <args> x[472] x[436] </args>
      <args> x[473] x[436] </args>
      <args> x[457] x[456] </args>
      <args> x[458] x[456] </args>
      <args> x[4] x[474] </args>
      <args> x[492] x[474] </args>
      <args> x[438] x[437] </args>
      <args> x[439] x[437] </args>
      <args> x[397] x[396] </args>
      <args> x[398] x[396] </args>
      <args> x[164] x[163] </args>
      <args> x[165] x[163] </args>
      <args> x[332] x[331] </args>
      <args> x[333] x[331] </args>
      <args> x[441] x[440] </args>
      <args> x[442] x[440] </args>
      <args> x[7] x[475] </args>
      <args> x[510] x[475] </args>
      <args> x[454] x[453] </args>
      <args> x[455] x[453] </args>
      <args> x[144] x[143] </args>
      <args> x[145] x[143] </args>
      <args> x[260] x[259] </args>
      <args> x[261] x[259] </args>
      <args> x[6] x[446] </args>
      <args> x[493] x[446] </args>
      <args> x[402] x[401] </args>
      <args> x[403] x[401] </args>
      <args> x[357] x[355] </args>
      <args> x[358] x[355] </args>
      <args> x[270] x[268] </args>
      <args> x[272] x[268] </args>
      <args> x[270] x[269] </args>
      <args> x[273] x[269] </args>
      <args> x[271] x[166] </args>
      <args> x[274] x[166] </args>
      <args> x[271] x[167] </args>
      <args> x[275] x[167] </args>
      <args> x[278] x[276] </args>
      <args> x[282] x[276] </args>
      <args> x[278] x[277] </args>
      <args> x[283] x[277] </args>
      <args> x[60] x[8] </args>
      <args> x[17] x[8] </args>
      <args> x[60] x[9] </args>
      <args> x[18] x[9] </args>
      <args> x[376] x[50] </args>
      <args> x[377] x[50] </args>
      <args> x[374] x[50] </args>
      <args> x[378] x[50] </args>
      <args> x[376] x[51] </args>
      <args> x[377] x[51] </args>
      <args> x[375] x[51] </args>
      <args> x[379] x[51] </args>
      <args> x[23] x[15] </args>
      <args> x[19] x[15] </args>
      <args> x[23] x[16] </args>
      <args> x[20] x[16] </args>
      <args> x[47] x[44] </args>
      <args> x[48] x[44] </args>
      <args> x[47] x[45] </args>
      <args> x[49] x[45] </args>
      <args> x[136] x[126] </args>
      <args> x[139] x[126] </args>
      <args> x[136] x[127] </args>
      <args> x[140] x[127] </args>
      <args> x[39] x[29] </args>
      <args> x[42] x[29] </args>
      <args> x[39] x[30] </args>
      <args> x[43] x[30] </args>
      <args> x[315] x[124] </args>
      <args> x[323] x[124] </args>
      <args> x[309] x[124] </args>
      <args> x[313] x[124] </args>
      <args> x[315] x[125] </args>
      <args> x[323] x[125] </args>
      <args> x[310] x[125] </args>
      <args> x[314] x[125] </args>
      <args> x[111] x[85] </args>
      <args> x[115] x[85] </args>
      <args> x[111] x[86] </args>
      <args> x[116] x[86] </args>
      <args> x[114] x[112] </args>
      <args> x[117] x[112] </args>
      <args> x[114] x[113] </args>
      <args> x[118] x[113] </args>
      <args> x[193] x[191] </args>
      <args> x[197] x[191] </args>
      <args> x[193] x[192] </args>
      <args> x[198] x[192] </args>
      <args> x[322] x[206] </args>
      <args> x[324] x[206] </args>
      <args> x[317] x[206] </args>
      <args> x[325] x[206] </args>
      <args> x[322] x[207] </args>
      <args> x[324] x[207] </args>
      <args> x[318] x[207] </args>
      <args> x[326] x[207] </args>
      <args> x[46] x[10] </args>
      <args> x[25] x[10] </args>
      <args> x[46] x[11] </args>
      <args> x[26] x[11] </args>
      <args> x[24] x[21] </args>
      <args> x[27] x[21] </args>
      <args> x[24] x[22] </args>
      <args> x[28] x[22] </args>
      <args> x[121] x[119] </args>
      <args> x[122] x[119] </args>
      <args> x[121] x[120] </args>
      <args> x[123] x[120] </args>
      <args> x[311] x[215] </args>
      <args> x[219] x[215] </args>
      <args> x[312] x[216] </args>
      <args> x[221] x[216] </args>
      <args> x[56] x[55] </args>
      <args> x[57] x[55] </args>
      <args> x[225] x[217] </args>
      <args> x[222] x[217] </args>
      <args> x[225] x[218] </args>
      <args> x[224] x[218] </args>
      <args> x[303] x[213] </args>
      <args> x[295] x[213] </args>
      <args> x[304] x[214] </args>
      <args> x[297] x[214] </args>
      <args> x[321] x[291] </args>
      <args> x[300] x[291] </args>
      <args> x[321] x[292] </args>
      <args> x[302] x[292] </args>
      <args> x[373] x[371] </args>
      <args> x[416] x[371] </args>
      <args> x[373] x[372] </args>
      <args> x[418] x[372] </args>
      <args> x[53] x[52] </args>
      <args> x[54] x[52] </args>
      <args> x[339] x[337] </args>
      <args> x[343] x[337] </args>
      <args> x[339] x[338] </args>
      <args> x[344] x[338] </args>
      <args> x[414] x[412] </args>
      <args> x[419] x[412] </args>
      <args> x[415] x[413] </args>
      <args> x[421] x[413] </args>
      <args> x[422] x[410] </args>
      <args> x[423] x[410] </args>
      <args> x[422] x[411] </args>
      <args> x[425] x[411] </args>
      <args> x[426] x[405] </args>
      <args> x[429] x[405] </args>
      <args> x[428] x[406] </args>
      <args> x[431] x[406] </args>
      <args> x[226] x[141] </args>
      <args> x[242] x[141] </args>
      <args> x[226] x[142] </args>
      <args> x[243] x[142] </args>
      <args> x[66] x[65] </args>
      <args> x[67] x[65] </args>
      <args> x[68] x[65] </args>
      <args> x[69] x[65] </args>
      <args> x[237] x[227] </args>
      <args> x[240] x[227] </args>
      <args> x[237] x[228] </args>
      <args> x[241] x[228] </args>
      <args> x[356] x[298] </args>
      <args> x[362] x[298] </args>
      <args> x[356] x[299] </args>
      <args> x[363] x[299] </args>
      <args> x[305] x[293] </args>
      <args> x[307] x[293] </args>
      <args> x[306] x[294] </args>
      <args> x[308] x[294] </args>
      <args> x[404] x[399] </args>
      <args> x[467] x[399] </args>
      <args> x[404] x[400] </args>
      <args> x[468] x[400] </args>
      <args> x[59] x[58] </args>
      <args> x[61] x[58] </args>
      <args> x[64] x[58] </args>
      <args> x[62] x[58] </args>
      <args> x[464] x[462] </args>
      <args> x[469] x[462] </args>
      <args> x[466] x[463] </args>
      <args> x[470] x[463] </args>
      <args> x[505] x[495] </args>
      <args> x[508] x[495] </args>
      <args> x[505] x[496] </args>
      <args> x[509] x[496] </args>
      <args> x[521] x[511] </args>
      <args> x[524] x[511] </args>
      <args> x[521] x[512] </args>
      <args> x[525] x[512] </args>
      <args> x[210] x[208] </args>
      <args> x[211] x[208] </args>
      <args> x[210] x[209] </args>
      <args> x[212] x[209] </args>
    </group>
    <group>
      <extension>
        <list> %0 %1 %2 %3 </list>
        <conflicts> (1,0,1,1) </conflicts>
      </extension>
      <args> x[185] x[184] x[187] x[182] </args>
      <args> x[185..186] x[188] x[183] </args>
      <args> x[178] x[177] x[187] x[182] </args>
      <args> x[178..179] x[188] x[183] </args>
      <args> x[104] x[103] x[106] x[101] </args>
      <args> x[104..105] x[107] x[102] </args>
      <args> x[97] x[96] x[106] x[101] </args>
      <args> x[97..98] x[107] x[102] </args>
      <args> x[83] x[82] x[80] x[74] </args>
      <args> x[83..84] x[81] x[75] </args>
      <args> x[78] x[77] x[80] x[74] </args>
      <args> x[78..79] x[81] x[75] </args>
      <args> x[255] x[254] x[257] x[252] </args>
      <args> x[255..256] x[258] x[253] </args>
      <args> x[248] x[247] x[257] x[252] </args>
      <args> x[248..249] x[258] x[253] </args>
      <args> x[287] x[286] x[289] x[284] </args>
      <args> x[287..288] x[290] x[285] </args>
      <args> x[280] x[279] x[289] x[284] </args>
      <args> x[280..281] x[290] x[285] </args>
      <args> x[132] x[131] x[134] x[137] </args>
      <args> x[132..133] x[135] x[138] </args>
      <args> x[129] x[128] x[134] x[137] </args>
      <args> x[129..130] x[135] x[138] </args>
      <args> x[35] x[34] x[37] x[40] </args>
      <args> x[35..36] x[38] x[41] </args>
      <args> x[32] x[31] x[37] x[40] </args>
      <args> x[32..33] x[38] x[41] </args>
      <args> x[202] x[201] x[204] x[199] </args>
      <args> x[202..203] x[205] x[200] </args>
      <args> x[195] x[194] x[204] x[199] </args>
      <args> x[195..196] x[205] x[200] </args>
      <args> x[348] x[347] x[350] x[345] </args>
      <args> x[348..349] x[351] x[346] </args>
      <args> x[341] x[340] x[350] x[345] </args>
      <args> x[341..342] x[351] x[346] </args>
      <args> x[230] x[229] x[232] x[238] </args>
      <args> x[230..231] x[233] x[239] </args>
      <args> x[235] x[234] x[232] x[238] </args>
      <args> x[235..236] x[233] x[239] </args>
      <args> x[367] x[366] x[369] x[364] </args>
      <args> x[367..368] x[370] x[365] </args>
      <args> x[360] x[359] x[369] x[364] </args>
      <args> x[360..361] x[370] x[365] </args>
      <args> x[501] x[500] x[503] x[506] </args>
      <args> x[501..502] x[504] x[507] </args>
      <args> x[498] x[497] x[503] x[506] </args>
      <args> x[498..499] x[504] x[507] </args>
      <args> x[517] x[516] x[519] x[522] </args>
      <args> x[517..518] x[520] x[523] </args>
      <args> x[514] x[513] x[519] x[522] </args>
      <args> x[514..515] x[520] x[523] </args>
    </group>
    <group>
      <extension>
        <list> %0 %1 %2 %3 %4 </list>
        <conflicts> (1,0,0,0,0) </conflicts>
      </extension>
      <args> x[527] x[427] x[433] x[435] x[465] </args>
      <args> x[316] x[319..320] x[434] x[471] </args>
      <args> x[152] x[220] x[223] x[296] x[301] </args>
      <args> x[153] x[155..156] x[158] x[432] </args>
      <args> x[154] x[417] x[420] x[424] x[430] </args>
      <args> x[531] x[530] x[529] x[528] x[526] </args>
    </group>
  </constraints>
</instance>
